p cnf 12 50 
-12 7 -3 0
-8 -5 6 0
-12 6 -7 0
2 3 -1 0
4 3 -12 0
1 4 12 0
2 -4 -10 0
12 1 11 0
8 7 3 0
8 -4 7 0
10 -7 -2 0
3 -11 -5 0
8 -6 -7 0
11 -6 -8 0
-1 5 -10 0
-10 1 7 0
-10 -8 9 0
-5 -3 10 0
-11 6 -1 0
6 -10 5 0
5 10 9 0
3 -11 -1 0
-10 6 -5 0
11 -4 -7 0
11 10 -7 0
-12 -9 -7 0
-5 11 6 0
-4 -8 -10 0
-2 -12 5 0
-11 -2 -1 0
-1 12 4 0
7 3 8 0
4 8 5 0
7 -1 9 0
11 7 6 0
-4 -6 8 0
12 -10 4 0
5 -2 -10 0
-2 8 12 0
-9 1 -10 0
-12 -5 -2 0
-6 8 -3 0
12 4 -8 0
9 1 5 0
-8 -2 1 0
8 -11 5 0
3 -12 -5 0
5 -6 -7 0
1 12 -6 0
-8 -7 -12 0
